c   #vars: 77   #clauses: 340   #literals: 930
c 
p cnf 77 340
-3 -4 0
-5 -6 0
-7 -8 0
-9 -10 0
3 4 61 62 0
3 4 68 69 0
1 2 75 76 0
32 33 53 54 0
-11 -12 0
-13 -14 0
45 46 -47 72 0
3 4 57 58 0
-15 -16 0
-17 -18 0
-19 -20 0
-21 -22 0
-26 27 59 60 0
-24 -25 0
26 27 -60 -70 0
1 2 45 46 0
-28 -29 0
-21 28 29 77 0
-30 -31 0
-32 -33 0
-34 -35 0
-36 -37 0
-38 -39 0
22 -43 77 0
-41 -42 0
-43 -44 0
-45 -46 0
-47 -48 0
30 31 55 56 0
-10 26 27 -70 0
-49 -50 0
-51 -52 0
-53 -54 0
-55 -56 0
-57 -58 0
-59 -60 0
-64 -65 0
-66 -67 0
-68 -69 0
-70 -71 0
-7 40 68 69 0
-73 -74 0
34 35 75 76 0
-75 -76 0
32 33 55 56 0
38 39 55 56 0
15 16 32 33 0
21 22 43 44 0
-1 -36 0
-2 -37 0
17 18 45 46 0
-1 -38 0
-2 -39 0
49 50 57 58 0
-1 -45 0
-2 -46 0
-1 -61 0
-2 -62 0
-28 43 44 77 0
-1 -66 0
-2 -67 0
-1 -75 0
-2 -76 0
45 46 59 60 0
23 -59 64 65 0
17 18 64 65 0
-3 -28 0
-4 -29 0
17 18 43 44 0
-3 -32 0
-4 -33 0
26 -27 36 37 0
-3 -38 0
-4 -39 0
15 16 61 62 0
-3 -57 0
-4 -58 0
43 44 64 65 0
-3 -61 0
-4 -62 0
47 48 70 71 0
-3 -68 0
-4 -69 0
11 12 41 42 0
-5 -38 0
-6 -39 0
11 12 34 35 0
-5 -53 0
-6 -54 0
21 22 28 29 0
-5 -55 0
-6 -56 0
28 29 68 69 0
-5 -70 0
-6 -71 0
-5 -75 0
-6 -76 0
19 20 43 44 0
-7 -36 0
-8 -37 0
21 22 -28 77 0
-8 -40 0
-7 -51 0
-8 -52 0
36 37 57 58 0
-7 -53 0
-8 -54 0
26 -36 70 71 0
-7 -57 0
-8 -58 0
24 25 28 29 0
-7 -59 0
-8 -60 0
9 10 68 69 0
-7 -66 0
-8 -67 0
-9 -27 0
7 8 57 58 0
-9 -36 0
-10 -37 0
28 29 66 67 0
-10 -63 0
17 18 59 60 0
-9 -68 0
-10 -69 0
38 39 59 60 0
19 20 40 -68 0
7 8 36 37 0
-7 19 20 40 0
28 29 -43 77 0
47 48 -49 72 0
-9 45 46 63 0
-45 47 48 72 0
-19 40 68 69 0
-11 -34 0
-12 -35 0
-11 -38 0
-12 -39 0
-11 -41 0
-12 -42 0
19 20 73 74 0
-11 -47 0
-12 -48 0
45 46 -49 63 0
-11 -64 0
-12 -65 0
26 -27 70 71 0
-13 -28 0
-14 -29 0
49 50 73 74 0
-13 -30 0
-14 -31 0
11 12 38 39 0
-13 -53 0
-14 -54 0
-13 -55 0
-14 -56 0
5 6 38 39 0
9 10 -49 63 0
51 52 75 76 0
9 10 -45 63 0
-15 -30 0
-16 -31 0
26 36 37 -70 0
-15 -32 0
-16 -33 0
5 6 75 76 0
-15 -41 0
-16 -42 0
-15 -61 0
-16 -62 0
11 12 47 48 0
-17 -43 0
-18 -44 0
-17 -45 0
-18 -46 0
24 25 70 71 0
-17 -51 0
-18 -52 0
24 25 66 67 0
-17 -59 0
-18 -60 0
30 31 66 67 0
-17 -64 0
-18 -65 0
24 25 41 42 0
21 22 41 42 0
-19 -30 0
-20 -31 0
15 16 41 42 0
-45 49 50 63 0
-20 -40 0
23 49 50 -64 0
-19 -43 0
-20 -44 0
5 6 55 56 0
-19 -73 0
-20 -74 0
19 20 30 31 0
-21 -28 0
-22 -29 0
-47 49 50 72 0
-21 -41 0
-22 -42 0
15 16 30 31 0
-21 -43 0
-22 -44 0
13 14 30 31 0
-21 -49 0
-22 -50 0
26 27 -36 -60 0
-49 -59 -60 72 0
-22 -77 0
-45 49 50 72 0
-10 27 59 60 0
-23 -50 0
1 2 36 37 0
9 10 27 -60 0
-23 -60 0
1 2 38 39 0
9 10 -26 27 0
-23 -65 0
3 4 32 33 0
-24 -28 0
-25 -29 0
17 18 51 52 0
-24 -41 0
-25 -42 0
32 33 61 62 0
-24 -51 0
-25 -52 0
13 14 28 29 0
-24 -53 0
-25 -54 0
-24 -66 0
-25 -67 0
47 48 75 76 0
-24 -70 0
-25 -71 0
23 59 60 -64 0
23 -49 59 60 0
-26 -37 0
-26 -71 0
24 25 53 54 0
-27 -59 0
1 2 61 62 0
-28 -66 0
-29 -67 0
5 6 70 71 0
-28 -68 0
-29 -69 0
-47 -59 -60 72 0
-29 -77 0
7 8 66 67 0
-61 -62 0
7 8 51 52 0
-1 -2 0
-30 -55 0
-31 -56 0
9 10 36 37 0
-30 -66 0
-31 -67 0
7 8 -19 40 0
-32 -53 0
-33 -54 0
3 4 38 39 0
-32 -55 0
-33 -56 0
-9 49 50 63 0
-32 -57 0
-33 -58 0
11 12 64 65 0
-32 -61 0
-33 -62 0
-21 44 77 0
-34 -70 0
-35 -71 0
-10 26 27 -36 0
-34 -73 0
-35 -74 0
3 4 28 29 0
-34 -75 0
-35 -76 0
23 49 50 -59 0
-36 -57 0
-37 -58 0
45 46 68 69 0
-38 -55 0
-39 -56 0
-38 -59 0
-39 -60 0
32 33 57 58 0
-40 -69 0
47 48 73 74 0
-43 -64 0
-44 -65 0
-45 -59 -60 72 0
-44 -77 0
21 22 49 50 0
-45 -59 0
-46 -60 0
-46 -63 0
34 35 70 71 0
-45 -68 0
-46 -69 0
-46 -72 0
5 6 53 54 0
-47 -70 0
-48 -71 0
34 35 73 74 0
55 56 -59 -60 0
-48 -72 0
7 8 53 54 0
-47 -73 0
-48 -74 0
13 14 53 54 0
-47 -75 0
-48 -76 0
13 14 55 56 0
-49 -57 0
-50 -58 0
45 46 -49 72 0
-50 -63 0
51 52 64 65 0
-50 -72 0
7 8 40 -68 0
-49 -73 0
-50 -74 0
1 2 66 67 0
-51 -64 0
-52 -65 0
-51 -75 0
-52 -76 0
7 8 59 60 0
24 25 51 52 0
23 -49 64 65 0
